Platinum FCC
1.0
       80.0000000000         0.0000000000         0.0000000000
        0.0000000000        80.0000000000         0.0000000000
        0.0000000000         0.0000000000        40.0000000000
   Pt
 8000
Cartesian
     0.000000000         2.000000030         2.000000030
     0.000000000         2.000000030         6.000000238
     0.000000000         2.000000030        10.000000000
     0.000000000         2.000000030        13.999999762
     0.000000000         2.000000030        17.999999523
     0.000000000         6.000000238         2.000000030
     0.000000000         6.000000238         6.000000238
     0.000000000         6.000000238        10.000000000
     0.000000000         6.000000238        13.999999762
     0.000000000         6.000000238        17.999999523
     0.000000000        10.000000000         2.000000030
     0.000000000        10.000000000         6.000000238
     0.000000000        10.000000000        10.000000000
     0.000000000        10.000000000        13.999999762
     0.000000000        10.000000000        17.999999523
     0.000000000        13.999999762         2.000000030
     0.000000000        13.999999762         6.000000238
     0.000000000        13.999999762        10.000000000
     0.000000000        13.999999762        13.999999762
     0.000000000        13.999999762        17.999999523
     0.000000000        17.999999523         2.000000030
     0.000000000        17.999999523         6.000000238
     0.000000000        17.999999523        10.000000000
     0.000000000        17.999999523        13.999999762
     0.000000000        17.999999523        17.999999523
     0.000000000        22.000000477         2.000000030
     0.000000000        22.000000477         6.000000238
     0.000000000        22.000000477        10.000000000
     0.000000000        22.000000477        13.999999762
     0.000000000        22.000000477        17.999999523
     0.000000000        25.999999046         2.000000030
     0.000000000        25.999999046         6.000000238
     0.000000000        25.999999046        10.000000000
     0.000000000        25.999999046        13.999999762
     0.000000000        25.999999046        17.999999523
     0.000000000        30.000000000         2.000000030
     0.000000000        30.000000000         6.000000238
     0.000000000        30.000000000        10.000000000
     0.000000000        30.000000000        13.999999762
     0.000000000        30.000000000        17.999999523
     0.000000000        34.000000954         2.000000030
     0.000000000        34.000000954         6.000000238
     0.000000000        34.000000954        10.000000000
     0.000000000        34.000000954        13.999999762
     0.000000000        34.000000954        17.999999523
     0.000000000        37.999999523         2.000000030
     0.000000000        37.999999523         6.000000238
     0.000000000        37.999999523        10.000000000
     0.000000000        37.999999523        13.999999762
     0.000000000        37.999999523        17.999999523
     0.000000000        41.999998093         2.000000030
     0.000000000        41.999998093         6.000000238
     0.000000000        41.999998093        10.000000000
     0.000000000        41.999998093        13.999999762
     0.000000000        41.999998093        17.999999523
     0.000000000        45.999999046         2.000000030
     0.000000000        45.999999046         6.000000238
     0.000000000        45.999999046        10.000000000
     0.000000000        45.999999046        13.999999762
     0.000000000        45.999999046        17.999999523
     0.000000000        50.000000000         2.000000030
     0.000000000        50.000000000         6.000000238
     0.000000000        50.000000000        10.000000000
     0.000000000        50.000000000        13.999999762
     0.000000000        50.000000000        17.999999523
     0.000000000        54.000000954         2.000000030
     0.000000000        54.000000954         6.000000238
     0.000000000        54.000000954        10.000000000
     0.000000000        54.000000954        13.999999762
     0.000000000        54.000000954        17.999999523
     0.000000000        58.000001907         2.000000030
     0.000000000        58.000001907         6.000000238
     0.000000000        58.000001907        10.000000000
     0.000000000        58.000001907        13.999999762
     0.000000000        58.000001907        17.999999523
     0.000000000        61.999998093         2.000000030
     0.000000000        61.999998093         6.000000238
     0.000000000        61.999998093        10.000000000
     0.000000000        61.999998093        13.999999762
     0.000000000        61.999998093        17.999999523
     0.000000000        65.999999046         2.000000030
     0.000000000        65.999999046         6.000000238
     0.000000000        65.999999046        10.000000000
     0.000000000        65.999999046        13.999999762
     0.000000000        65.999999046        17.999999523
     0.000000000        70.000000000         2.000000030
     0.000000000        70.000000000         6.000000238
     0.000000000        70.000000000        10.000000000
     0.000000000        70.000000000        13.999999762
     0.000000000        70.000000000        17.999999523
     0.000000000        74.000000954         2.000000030
     0.000000000        74.000000954         6.000000238
     0.000000000        74.000000954        10.000000000
     0.000000000        74.000000954        13.999999762
     0.000000000        74.000000954        17.999999523
     0.000000000        78.000001907         2.000000030
     0.000000000        78.000001907         6.000000238
     0.000000000        78.000001907        10.000000000
     0.000000000        78.000001907        13.999999762
     0.000000000        78.000001907        17.999999523
     4.000000060         2.000000030         2.000000030
     4.000000060         2.000000030         6.000000238
     4.000000060         2.000000030        10.000000000
     4.000000060         2.000000030        13.999999762
     4.000000060         2.000000030        17.999999523
     4.000000060         6.000000238         2.000000030
     4.000000060         6.000000238         6.000000238
     4.000000060         6.000000238        10.000000000
     4.000000060         6.000000238        13.999999762
     4.000000060         6.000000238        17.999999523
     4.000000060        10.000000000         2.000000030
     4.000000060        10.000000000         6.000000238
     4.000000060        10.000000000        10.000000000
     4.000000060        10.000000000        13.999999762
     4.000000060        10.000000000        17.999999523
     4.000000060        13.999999762         2.000000030
     4.000000060        13.999999762         6.000000238
     4.000000060        13.999999762        10.000000000
     4.000000060        13.999999762        13.999999762
     4.000000060        13.999999762        17.999999523
     4.000000060        17.999999523         2.000000030
     4.000000060        17.999999523         6.000000238
     4.000000060        17.999999523        10.000000000
     4.000000060        17.999999523        13.999999762
     4.000000060        17.999999523        17.999999523
     4.000000060        22.000000477         2.000000030
     4.000000060        22.000000477         6.000000238
     4.000000060        22.000000477        10.000000000
     4.000000060        22.000000477        13.999999762
     4.000000060        22.000000477        17.999999523
     4.000000060        25.999999046         2.000000030
     4.000000060        25.999999046         6.000000238
     4.000000060        25.999999046        10.000000000
     4.000000060        25.999999046        13.999999762
     4.000000060        25.999999046        17.999999523
     4.000000060        30.000000000         2.000000030
     4.000000060        30.000000000         6.000000238
     4.000000060        30.000000000        10.000000000
     4.000000060        30.000000000        13.999999762
     4.000000060        30.000000000        17.999999523
     4.000000060        34.000000954         2.000000030
     4.000000060        34.000000954         6.000000238
     4.000000060        34.000000954        10.000000000
     4.000000060        34.000000954        13.999999762
     4.000000060        34.000000954        17.999999523
     4.000000060        37.999999523         2.000000030
     4.000000060        37.999999523         6.000000238
     4.000000060        37.999999523        10.000000000
     4.000000060        37.999999523        13.999999762
     4.000000060        37.999999523        17.999999523
     4.000000060        41.999998093         2.000000030
     4.000000060        41.999998093         6.000000238
     4.000000060        41.999998093        10.000000000
     4.000000060        41.999998093        13.999999762
     4.000000060        41.999998093        17.999999523
     4.000000060        45.999999046         2.000000030
     4.000000060        45.999999046         6.000000238
     4.000000060        45.999999046        10.000000000
     4.000000060        45.999999046        13.999999762
     4.000000060        45.999999046        17.999999523
     4.000000060        50.000000000         2.000000030
     4.000000060        50.000000000         6.000000238
     4.000000060        50.000000000        10.000000000
     4.000000060        50.000000000        13.999999762
     4.000000060        50.000000000        17.999999523
     4.000000060        54.000000954         2.000000030
     4.000000060        54.000000954         6.000000238
     4.000000060        54.000000954        10.000000000
     4.000000060        54.000000954        13.999999762
     4.000000060        54.000000954        17.999999523
     4.000000060        58.000001907         2.000000030
     4.000000060        58.000001907         6.000000238
     4.000000060        58.000001907        10.000000000
     4.000000060        58.000001907        13.999999762
     4.000000060        58.000001907        17.999999523
     4.000000060        61.999998093         2.000000030
     4.000000060        61.999998093         6.000000238
     4.000000060        61.999998093        10.000000000
     4.000000060        61.999998093        13.999999762
     4.000000060        61.999998093        17.999999523
     4.000000060        65.999999046         2.000000030
     4.000000060        65.999999046         6.000000238
     4.000000060        65.999999046        10.000000000
     4.000000060        65.999999046        13.999999762
     4.000000060        65.999999046        17.999999523
     4.000000060        70.000000000         2.000000030
     4.000000060        70.000000000         6.000000238
     4.000000060        70.000000000        10.000000000
     4.000000060        70.000000000        13.999999762
     4.000000060        70.000000000        17.999999523
     4.000000060        74.000000954         2.000000030
     4.000000060        74.000000954         6.000000238
     4.000000060        74.000000954        10.000000000
     4.000000060        74.000000954        13.999999762
     4.000000060        74.000000954        17.999999523
     4.000000060        78.000001907         2.000000030
     4.000000060        78.000001907         6.000000238
     4.000000060        78.000001907        10.000000000
     4.000000060        78.000001907        13.999999762
     4.000000060        78.000001907        17.999999523
     8.000000119         2.000000030         2.000000030
     8.000000119         2.000000030         6.000000238
     8.000000119         2.000000030        10.000000000
     8.000000119         2.000000030        13.999999762
     8.000000119         2.000000030        17.999999523
     8.000000119         6.000000238         2.000000030
     8.000000119         6.000000238         6.000000238
     8.000000119         6.000000238        10.000000000
     8.000000119         6.000000238        13.999999762
     8.000000119         6.000000238        17.999999523
     8.000000119        10.000000000         2.000000030
     8.000000119        10.000000000         6.000000238
     8.000000119        10.000000000        10.000000000
     8.000000119        10.000000000        13.999999762
     8.000000119        10.000000000        17.999999523
     8.000000119        13.999999762         2.000000030
     8.000000119        13.999999762         6.000000238
     8.000000119        13.999999762        10.000000000
     8.000000119        13.999999762        13.999999762
     8.000000119        13.999999762        17.999999523
     8.000000119        17.999999523         2.000000030
     8.000000119        17.999999523         6.000000238
     8.000000119        17.999999523        10.000000000
     8.000000119        17.999999523        13.999999762
     8.000000119        17.999999523        17.999999523
     8.000000119        22.000000477         2.000000030
     8.000000119        22.000000477         6.000000238
     8.000000119        22.000000477        10.000000000
     8.000000119        22.000000477        13.999999762
     8.000000119        22.000000477        17.999999523
     8.000000119        25.999999046         2.000000030
     8.000000119        25.999999046         6.000000238
     8.000000119        25.999999046        10.000000000
     8.000000119        25.999999046        13.999999762
     8.000000119        25.999999046        17.999999523
     8.000000119        30.000000000         2.000000030
     8.000000119        30.000000000         6.000000238
     8.000000119        30.000000000        10.000000000
     8.000000119        30.000000000        13.999999762
     8.000000119        30.000000000        17.999999523
     8.000000119        34.000000954         2.000000030
     8.000000119        34.000000954         6.000000238
     8.000000119        34.000000954        10.000000000
     8.000000119        34.000000954        13.999999762
     8.000000119        34.000000954        17.999999523
     8.000000119        37.999999523         2.000000030
     8.000000119        37.999999523         6.000000238
     8.000000119        37.999999523        10.000000000
     8.000000119        37.999999523        13.999999762
     8.000000119        37.999999523        17.999999523
     8.000000119        41.999998093         2.000000030
     8.000000119        41.999998093         6.000000238
     8.000000119        41.999998093        10.000000000
     8.000000119        41.999998093        13.999999762
     8.000000119        41.999998093        17.999999523
     8.000000119        45.999999046         2.000000030
     8.000000119        45.999999046         6.000000238
     8.000000119        45.999999046        10.000000000
     8.000000119        45.999999046        13.999999762
     8.000000119        45.999999046        17.999999523
     8.000000119        50.000000000         2.000000030
     8.000000119        50.000000000         6.000000238
     8.000000119        50.000000000        10.000000000
     8.000000119        50.000000000        13.999999762
     8.000000119        50.000000000        17.999999523
     8.000000119        54.000000954         2.000000030
     8.000000119        54.000000954         6.000000238
     8.000000119        54.000000954        10.000000000
     8.000000119        54.000000954        13.999999762
     8.000000119        54.000000954        17.999999523
     8.000000119        58.000001907         2.000000030
     8.000000119        58.000001907         6.000000238
     8.000000119        58.000001907        10.000000000
     8.000000119        58.000001907        13.999999762
     8.000000119        58.000001907        17.999999523
     8.000000119        61.999998093         2.000000030
     8.000000119        61.999998093         6.000000238
     8.000000119        61.999998093        10.000000000
     8.000000119        61.999998093        13.999999762
     8.000000119        61.999998093        17.999999523
     8.000000119        65.999999046         2.000000030
     8.000000119        65.999999046         6.000000238
     8.000000119        65.999999046        10.000000000
     8.000000119        65.999999046        13.999999762
     8.000000119        65.999999046        17.999999523
     8.000000119        70.000000000         2.000000030
     8.000000119        70.000000000         6.000000238
     8.000000119        70.000000000        10.000000000
     8.000000119        70.000000000        13.999999762
     8.000000119        70.000000000        17.999999523
     8.000000119        74.000000954         2.000000030
     8.000000119        74.000000954         6.000000238
     8.000000119        74.000000954        10.000000000
     8.000000119        74.000000954        13.999999762
     8.000000119        74.000000954        17.999999523
     8.000000119        78.000001907         2.000000030
     8.000000119        78.000001907         6.000000238
     8.000000119        78.000001907        10.000000000
     8.000000119        78.000001907        13.999999762
     8.000000119        78.000001907        17.999999523
    12.000000477         2.000000030         2.000000030
    12.000000477         2.000000030         6.000000238
    12.000000477         2.000000030        10.000000000
    12.000000477         2.000000030        13.999999762
    12.000000477         2.000000030        17.999999523
    12.000000477         6.000000238         2.000000030
    12.000000477         6.000000238         6.000000238
    12.000000477         6.000000238        10.000000000
    12.000000477         6.000000238        13.999999762
    12.000000477         6.000000238        17.999999523
    12.000000477        10.000000000         2.000000030
    12.000000477        10.000000000         6.000000238
    12.000000477        10.000000000        10.000000000
    12.000000477        10.000000000        13.999999762
    12.000000477        10.000000000        17.999999523
    12.000000477        13.999999762         2.000000030
    12.000000477        13.999999762         6.000000238
    12.000000477        13.999999762        10.000000000
    12.000000477        13.999999762        13.999999762
    12.000000477        13.999999762        17.999999523
    12.000000477        17.999999523         2.000000030
    12.000000477        17.999999523         6.000000238
    12.000000477        17.999999523        10.000000000
    12.000000477        17.999999523        13.999999762
    12.000000477        17.999999523        17.999999523
    12.000000477        22.000000477         2.000000030
    12.000000477        22.000000477         6.000000238
    12.000000477        22.000000477        10.000000000
    12.000000477        22.000000477        13.999999762
    12.000000477        22.000000477        17.999999523
    12.000000477        25.999999046         2.000000030
    12.000000477        25.999999046         6.000000238
    12.000000477        25.999999046        10.000000000
    12.000000477        25.999999046        13.999999762
    12.000000477        25.999999046        17.999999523
    12.000000477        30.000000000         2.000000030
    12.000000477        30.000000000         6.000000238
    12.000000477        30.000000000        10.000000000
    12.000000477        30.000000000        13.999999762
    12.000000477        30.000000000        17.999999523
    12.000000477        34.000000954         2.000000030
    12.000000477        34.000000954         6.000000238
    12.000000477        34.000000954        10.000000000
    12.000000477        34.000000954        13.999999762
    12.000000477        34.000000954        17.999999523
    12.000000477        37.999999523         2.000000030
    12.000000477        37.999999523         6.000000238
    12.000000477        37.999999523        10.000000000
    12.000000477        37.999999523        13.999999762
    12.000000477        37.999999523        17.999999523
    12.000000477        41.999998093         2.000000030
    12.000000477        41.999998093         6.000000238
    12.000000477        41.999998093        10.000000000
    12.000000477        41.999998093        13.999999762
    12.000000477        41.999998093        17.999999523
    12.000000477        45.999999046         2.000000030
    12.000000477        45.999999046         6.000000238
    12.000000477        45.999999046        10.000000000
    12.000000477        45.999999046        13.999999762
    12.000000477        45.999999046        17.999999523
    12.000000477        50.000000000         2.000000030
    12.000000477        50.000000000         6.000000238
    12.000000477        50.000000000        10.000000000
    12.000000477        50.000000000        13.999999762
    12.000000477        50.000000000        17.999999523
    12.000000477        54.000000954         2.000000030
    12.000000477        54.000000954         6.000000238
    12.000000477        54.000000954        10.000000000
    12.000000477        54.000000954        13.999999762
    12.000000477        54.000000954        17.999999523
    12.000000477        58.000001907         2.000000030
    12.000000477        58.000001907         6.000000238
    12.000000477        58.000001907        10.000000000
    12.000000477        58.000001907        13.999999762
    12.000000477        58.000001907        17.999999523
    12.000000477        61.999998093         2.000000030
    12.000000477        61.999998093         6.000000238
    12.000000477        61.999998093        10.000000000
    12.000000477        61.999998093        13.999999762
    12.000000477        61.999998093        17.999999523
    12.000000477        65.999999046         2.000000030
    12.000000477        65.999999046         6.000000238
    12.000000477        65.999999046        10.000000000
    12.000000477        65.999999046        13.999999762
    12.000000477        65.999999046        17.999999523
    12.000000477        70.000000000         2.000000030
    12.000000477        70.000000000         6.000000238
    12.000000477        70.000000000        10.000000000
    12.000000477        70.000000000        13.999999762
    12.000000477        70.000000000        17.999999523
    12.000000477        74.000000954         2.000000030
    12.000000477        74.000000954         6.000000238
    12.000000477        74.000000954        10.000000000
    12.000000477        74.000000954        13.999999762
    12.000000477        74.000000954        17.999999523
    12.000000477        78.000001907         2.000000030
    12.000000477        78.000001907         6.000000238
    12.000000477        78.000001907        10.000000000
    12.000000477        78.000001907        13.999999762
    12.000000477        78.000001907        17.999999523
    16.000000238         2.000000030         2.000000030
    16.000000238         2.000000030         6.000000238
    16.000000238         2.000000030        10.000000000
    16.000000238         2.000000030        13.999999762
    16.000000238         2.000000030        17.999999523
    16.000000238         6.000000238         2.000000030
    16.000000238         6.000000238         6.000000238
    16.000000238         6.000000238        10.000000000
    16.000000238         6.000000238        13.999999762
    16.000000238         6.000000238        17.999999523
    16.000000238        10.000000000         2.000000030
    16.000000238        10.000000000         6.000000238
    16.000000238        10.000000000        10.000000000
    16.000000238        10.000000000        13.999999762
    16.000000238        10.000000000        17.999999523
    16.000000238        13.999999762         2.000000030
    16.000000238        13.999999762         6.000000238
    16.000000238        13.999999762        10.000000000
    16.000000238        13.999999762        13.999999762
    16.000000238        13.999999762        17.999999523
    16.000000238        17.999999523         2.000000030
    16.000000238        17.999999523         6.000000238
    16.000000238        17.999999523        10.000000000
    16.000000238        17.999999523        13.999999762
    16.000000238        17.999999523        17.999999523
    16.000000238        22.000000477         2.000000030
    16.000000238        22.000000477         6.000000238
    16.000000238        22.000000477        10.000000000
    16.000000238        22.000000477        13.999999762
    16.000000238        22.000000477        17.999999523
    16.000000238        25.999999046         2.000000030
    16.000000238        25.999999046         6.000000238
    16.000000238        25.999999046        10.000000000
    16.000000238        25.999999046        13.999999762
    16.000000238        25.999999046        17.999999523
    16.000000238        30.000000000         2.000000030
    16.000000238        30.000000000         6.000000238
    16.000000238        30.000000000        10.000000000
    16.000000238        30.000000000        13.999999762
    16.000000238        30.000000000        17.999999523
    16.000000238        34.000000954         2.000000030
    16.000000238        34.000000954         6.000000238
    16.000000238        34.000000954        10.000000000
    16.000000238        34.000000954        13.999999762
    16.000000238        34.000000954        17.999999523
    16.000000238        37.999999523         2.000000030
    16.000000238        37.999999523         6.000000238
    16.000000238        37.999999523        10.000000000
    16.000000238        37.999999523        13.999999762
    16.000000238        37.999999523        17.999999523
    16.000000238        41.999998093         2.000000030
    16.000000238        41.999998093         6.000000238
    16.000000238        41.999998093        10.000000000
    16.000000238        41.999998093        13.999999762
    16.000000238        41.999998093        17.999999523
    16.000000238        45.999999046         2.000000030
    16.000000238        45.999999046         6.000000238
    16.000000238        45.999999046        10.000000000
    16.000000238        45.999999046        13.999999762
    16.000000238        45.999999046        17.999999523
    16.000000238        50.000000000         2.000000030
    16.000000238        50.000000000         6.000000238
    16.000000238        50.000000000        10.000000000
    16.000000238        50.000000000        13.999999762
    16.000000238        50.000000000        17.999999523
    16.000000238        54.000000954         2.000000030
    16.000000238        54.000000954         6.000000238
    16.000000238        54.000000954        10.000000000
    16.000000238        54.000000954        13.999999762
    16.000000238        54.000000954        17.999999523
    16.000000238        58.000001907         2.000000030
    16.000000238        58.000001907         6.000000238
    16.000000238        58.000001907        10.000000000
    16.000000238        58.000001907        13.999999762
    16.000000238        58.000001907        17.999999523
    16.000000238        61.999998093         2.000000030
    16.000000238        61.999998093         6.000000238
    16.000000238        61.999998093        10.000000000
    16.000000238        61.999998093        13.999999762
    16.000000238        61.999998093        17.999999523
    16.000000238        65.999999046         2.000000030
    16.000000238        65.999999046         6.000000238
    16.000000238        65.999999046        10.000000000
    16.000000238        65.999999046        13.999999762
    16.000000238        65.999999046        17.999999523
    16.000000238        70.000000000         2.000000030
    16.000000238        70.000000000         6.000000238
    16.000000238        70.000000000        10.000000000
    16.000000238        70.000000000        13.999999762
    16.000000238        70.000000000        17.999999523
    16.000000238        74.000000954         2.000000030
    16.000000238        74.000000954         6.000000238
    16.000000238        74.000000954        10.000000000
    16.000000238        74.000000954        13.999999762
    16.000000238        74.000000954        17.999999523
    16.000000238        78.000001907         2.000000030
    16.000000238        78.000001907         6.000000238
    16.000000238        78.000001907        10.000000000
    16.000000238        78.000001907        13.999999762
    16.000000238        78.000001907        17.999999523
    20.000000000         2.000000030         2.000000030
    20.000000000         2.000000030         6.000000238
    20.000000000         2.000000030        10.000000000
    20.000000000         2.000000030        13.999999762
    20.000000000         2.000000030        17.999999523
    20.000000000         6.000000238         2.000000030
    20.000000000         6.000000238         6.000000238
    20.000000000         6.000000238        10.000000000
    20.000000000         6.000000238        13.999999762
    20.000000000         6.000000238        17.999999523
    20.000000000        10.000000000         2.000000030
    20.000000000        10.000000000         6.000000238
    20.000000000        10.000000000        10.000000000
    20.000000000        10.000000000        13.999999762
    20.000000000        10.000000000        17.999999523
    20.000000000        13.999999762         2.000000030
    20.000000000        13.999999762         6.000000238
    20.000000000        13.999999762        10.000000000
    20.000000000        13.999999762        13.999999762
    20.000000000        13.999999762        17.999999523
    20.000000000        17.999999523         2.000000030
    20.000000000        17.999999523         6.000000238