Silicon FCC
4.0
1 0 0
0 1 0
0 0 1
Si
4
Direct
0.0 0.5 0.5
0.5 0.0 0.5
0.5 0.5 0.0
0.0 0.0 0.0
